c
c Generated WCNF file
c
p wcnf 67 298 26470
26470 12 0
26470 -13 1 0
26470 -13 2 0
26470 13 -1 -2 0
26470 -14 1 0
26470 -14 3 0
26470 14 -1 -3 0
26470 -15 1 0
26470 -15 4 0
26470 15 -1 -4 0
26470 -16 1 0
26470 -16 5 0
26470 16 -1 -5 0
26470 -17 1 0
26470 -17 6 0
26470 17 -1 -6 0
26470 -18 1 0
26470 -18 7 0
26470 18 -1 -7 0
26470 -19 1 0
26470 -19 8 0
26470 19 -1 -8 0
26470 -20 1 0
26470 -20 9 0
26470 20 -1 -9 0
26470 -21 1 0
26470 -21 10 0
26470 21 -1 -10 0
26470 -22 1 0
26470 -22 11 0
26470 22 -1 -11 0
26470 -23 2 0
26470 -23 3 0
26470 23 -2 -3 0
26470 -24 2 0
26470 -24 4 0
26470 24 -2 -4 0
26470 -25 2 0
26470 -25 5 0
26470 25 -2 -5 0
26470 -26 2 0
26470 -26 6 0
26470 26 -2 -6 0
26470 -27 2 0
26470 -27 7 0
26470 27 -2 -7 0
26470 -28 2 0
26470 -28 8 0
26470 28 -2 -8 0
26470 -29 2 0
26470 -29 9 0
26470 29 -2 -9 0
26470 -30 2 0
26470 -30 10 0
26470 30 -2 -10 0
26470 -31 2 0
26470 -31 11 0
26470 31 -2 -11 0
26470 -32 3 0
26470 -32 4 0
26470 32 -3 -4 0
26470 -33 3 0
26470 -33 5 0
26470 33 -3 -5 0
26470 -34 3 0
26470 -34 6 0
26470 34 -3 -6 0
26470 -35 3 0
26470 -35 7 0
26470 35 -3 -7 0
26470 -36 3 0
26470 -36 8 0
26470 36 -3 -8 0
26470 -37 3 0
26470 -37 9 0
26470 37 -3 -9 0
26470 -38 3 0
26470 -38 10 0
26470 38 -3 -10 0
26470 -39 3 0
26470 -39 11 0
26470 39 -3 -11 0
26470 -40 4 0
26470 -40 5 0
26470 40 -4 -5 0
26470 -41 4 0
26470 -41 6 0
26470 41 -4 -6 0
26470 -42 4 0
26470 -42 7 0
26470 42 -4 -7 0
26470 -43 4 0
26470 -43 8 0
26470 43 -4 -8 0
26470 -44 4 0
26470 -44 9 0
26470 44 -4 -9 0
26470 -45 4 0
26470 -45 10 0
26470 45 -4 -10 0
26470 -46 4 0
26470 -46 11 0
26470 46 -4 -11 0
26470 -47 5 0
26470 -47 6 0
26470 47 -5 -6 0
26470 -48 5 0
26470 -48 7 0
26470 48 -5 -7 0
26470 -49 5 0
26470 -49 8 0
26470 49 -5 -8 0
26470 -50 5 0
26470 -50 9 0
26470 50 -5 -9 0
26470 -51 5 0
26470 -51 10 0
26470 51 -5 -10 0
26470 -52 5 0
26470 -52 11 0
26470 52 -5 -11 0
26470 -53 6 0
26470 -53 7 0
26470 53 -6 -7 0
26470 -54 6 0
26470 -54 8 0
26470 54 -6 -8 0
26470 -55 6 0
26470 -55 9 0
26470 55 -6 -9 0
26470 -56 6 0
26470 -56 10 0
26470 56 -6 -10 0
26470 -57 6 0
26470 -57 11 0
26470 57 -6 -11 0
26470 -58 7 0
26470 -58 8 0
26470 58 -7 -8 0
26470 -59 7 0
26470 -59 9 0
26470 59 -7 -9 0
26470 -60 7 0
26470 -60 10 0
26470 60 -7 -10 0
26470 -61 7 0
26470 -61 11 0
26470 61 -7 -11 0
26470 -62 8 0
26470 -62 9 0
26470 62 -8 -9 0
26470 -63 8 0
26470 -63 10 0
26470 63 -8 -10 0
26470 -64 8 0
26470 -64 11 0
26470 64 -8 -11 0
26470 -65 9 0
26470 -65 10 0
26470 65 -9 -10 0
26470 -66 9 0
26470 -66 11 0
26470 66 -9 -11 0
26470 -67 10 0
26470 -67 11 0
26470 67 -10 -11 0
3521 1 0
26460 -1 0
33936 13 0
26460 -13 0
25102 14 0
26460 -14 0
35862 15 0
26460 -15 0
24156 16 0
26460 -16 0
19754 17 0
26460 -17 0
23092 18 0
26460 -18 0
23024 19 0
26460 -19 0
32308 20 0
26460 -20 0
26666 21 0
26460 -21 0
26676 22 0
26460 -22 0
12960 2 0
26460 -2 0
36898 23 0
26460 -23 0
25708 24 0
26460 -24 0
20872 25 0
26460 -25 0
17324 26 0
26460 -26 0
26948 27 0
26460 -27 0
27016 28 0
26460 -28 0
23792 29 0
26460 -29 0
29104 30 0
26460 -30 0
26334 31 0
26460 -31 0
20669 3 0
26460 -3 0
27136 32 0
26460 -32 0
32986 33 0
26460 -33 0
31346 34 0
26460 -34 0
26994 35 0
26460 -35 0
27340 36 0
26460 -36 0
27968 37 0
26460 -37 0
22940 38 0
26460 -38 0
26574 39 0
26460 -39 0
34574 4 0
26460 -4 0
29946 40 0
26460 -40 0
30296 41 0
26460 -41 0
32630 42 0
26460 -42 0
31700 43 0
26460 -43 0
19900 44 0
26460 -44 0
25286 45 0
26460 -45 0
26280 46 0
26460 -46 0
18715 5 0
26460 -5 0
23418 47 0
26460 -47 0
20034 48 0
26460 -48 0
26424 49 0
26460 -49 0
26184 50 0
26460 -50 0
25160 51 0
26460 -51 0
26742 52 0
26460 -52 0
15325 6 0
26460 -6 0
25138 53 0
26460 -53 0
24554 54 0
26460 -54 0
27694 55 0
26460 -55 0
29106 56 0
26460 -56 0
26430 57 0
26460 -57 0
15083 7 0
26460 -7 0
23608 58 0
26460 -58 0
28052 59 0
26460 -59 0
26756 60 0
26460 -60 0
26718 61 0
26460 -61 0
17280 8 0
26460 -8 0
29212 62 0
26460 -62 0
28746 63 0
26460 -63 0
26448 64 0
26460 -64 0
31352 9 0
26460 -9 0
25974 65 0
26460 -65 0
26382 66 0
26460 -66 0
29556 10 0
26460 -10 0
26634 67 0
26460 -67 0
26451 11 0
26460 -11 0
